a	0	0	0	0	0	0	0	0	0	0	0	0	1	0	0	0
c	0	4	0	0	0	0	10	0	0	6	0	0	0	0	0	0
b	1	1	0	0	0	0	4	0	0	0	0	0	2	0	0	2
e	1	2	0	0	0	0	10	0	0	1	0	0	2	0	0	4
d	0	0	0	0	0	0	0	0	0	0	0	0	1	0	0	0
f	0	0	1	0	0	0	1	0	0	0	0	0	2	0	0	0
i	0	3	0	0	0	0	4	0	0	3	0	0	0	0	0	0
h	0	0	0	0	0	0	0	0	0	0	0	0	0	0	0	1
k	0	0	1	0	0	0	1	0	0	0	0	0	2	0	0	0
j	0	0	0	0	0	0	0	0	0	0	0	0	1	0	0	0
